p cnf 43 122
a 24 15 0
e 1 2 3 4 5 6 7 8 9 10 11 12 13 14 16 17 18 19 20 21 22 23 25 26 27 28 29 30 31 32 33 34 35 36 37 38 39 40 41 42 43 0
-3 1 0
-3 2 0
-1 -2 3 0
4 -5 -6 0
-4 5 -6 0
4 5 6 0
-4 -5 6 0
3 6 -7 0
-3 -6 -7 0
3 -6 7 0
-3 6 7 0
10 -8 0
10 -9 0
8 9 -10 0
-4 11 -12 0
4 -11 -12 0
-4 -11 12 0
4 11 12 0
-13 10 0
-13 12 0
-10 -12 13 0
1 -4 -14 0
-1 4 -14 0
1 4 14 0
-1 -4 14 0
15 13 0
15 -14 0
-13 14 -15 0
-6 16 -17 0
6 -16 -17 0
-6 -16 17 0
6 16 17 0
-18 15 0
-18 -17 0
-15 17 18 0
19 10 0
19 -1 0
-10 1 -19 0
-21 4 0
-21 20 0
-4 -20 21 0
-22 4 0
-22 1 0
-4 -1 22 0
-23 22 0
-23 8 0
-22 -8 23 0
-12 -23 -24 0
12 23 -24 0
-12 23 24 0
12 -23 24 0
21 -24 -25 0
-21 24 -25 0
21 24 25 0
-21 -24 25 0
-19 25 -26 0
19 -25 -26 0
-19 -25 26 0
19 25 26 0
-27 -18 0
-27 26 0
18 -26 27 0
28 -7 0
28 27 0
7 -27 -28 0
-29 -2 0
-29 -4 0
2 4 29 0
-4 -30 0
4 -30 0
31 30 0
31 30 0
-30 -31 0
-32 -29 0
-32 31 0
29 -31 32 0
-10 -8 -33 0
10 8 -33 0
-10 8 33 0
10 -8 33 0
-33 3 -34 0
33 -3 -34 0
-33 -3 34 0
33 3 34 0
36 -8 0
36 -2 0
8 2 -36 0
36 -24 -37 0
-36 24 -37 0
36 24 37 0
-36 -24 37 0
-38 -35 0
-38 -37 0
35 37 38 0
-39 -34 0
-39 -38 0
34 38 39 0
-40 -33 0
-40 -3 0
33 3 40 0
41 39 0
41 40 0
-39 -40 -41 0
-42 -32 0
-42 41 0
32 -41 42 0
-28 -42 -43 0
28 42 -43 0
-28 42 43 0
28 -42 43 0
-8 6 38 7 0
9 -10 37 18 23 11 -34 0
42 -15 -16 -35 -6 -5 11 0
38 -19 29 36 -34 37 0
-1 -19 -3 -13 -12 41 -40 15 0
-27 40 -30 39 -29 41 0
-24 -21 37 0
26 -38 -4 1 -32 -18 0
5 -30 17 0
23 -1 -32 8 -25 7 -2 0
11 -17 14 0
43 0
